letting initialStacks = [34, 28, 13, 8, 46, 5, 48, 19, 17, 47, 51, 40, 35, 42, 27, 41, 3, 15, 29, 30, 22, 43, 9, 26, 31, 38, 10, 37, 32, 50, 44, 33, 11, 23, 7, 25, 49, 21, 12, 14, 16, 45, 39, 1, 18, 4, 6, 20, 36, 2, 24]
